17

C          1.01345        0.03607        0.09861
C          2.53394        0.02164        0.09279
C          3.06868       -1.30583       -0.44095
C          4.59607       -1.33129       -0.45117
C          5.11656       -2.65659       -0.98404
H          0.64349        0.99143        0.48273
H          0.61732       -0.76293        0.73332
H          0.61733       -0.10119       -0.91255
H          2.90063        0.19007        1.11182
H          2.90061        0.84861       -0.52601
H          2.69232       -1.47051       -1.45805
H          2.69232       -2.12875        0.17907
H          4.97972       -1.17391        0.56357
H          4.97973       -0.51527       -1.07454
H          4.77240       -3.48984       -0.36305
H          6.21062       -2.66240       -0.98638
H          4.77240       -2.82803       -2.00901
