24
caffeine (C8H10N4O2)
C         -3.24741       -1.13338        0.03085
N         -2.26564       -0.07883        0.00538
C         -2.52079        1.26675       -0.00557
N         -1.40686        1.97296       -0.00910
C         -0.41405        1.04003       -0.00300
C         -0.90847       -0.22864        0.00092
C         -0.08494       -1.38655        0.00646
O         -0.54163       -2.52584        0.00868
N          1.27859       -1.08004        0.00992
C          1.83002        0.21839        0.00766
O          3.05306        0.38762        0.01088
N          0.93714        1.29070        0.00305
C          1.42504        2.65762        0.00864
C          2.22515       -2.17795        0.02143
H         -4.24995       -0.69925        0.00482
H         -3.11700       -1.70536        0.95309
H         -3.09907       -1.77036       -0.84451
H         -3.52341        1.67566       -0.00787
H          2.51704        2.70044        0.03492
H          1.03541        3.17325        0.89211
H          1.07712        3.16545       -0.89652
H          1.73595       -3.15507        0.02232
H          2.85353       -2.09533        0.91437
H          2.86777       -2.10333       -0.86183
